c solution = True
p edge 400 399
e 2 1 1
e 16 1 1
e 18 1 1
e 29 1 1
e 19 18 1
e 23 18 1
e 38 18 1
e 40 18 1
e 41 40 1
e 49 41 1
e 59 41 1
e 50 49 1
e 82 49 1
e 93 49 1
e 111 49 1
e 188 49 1
e 117 93 1
e 160 93 1
e 90 50 1
e 143 90 1
e 151 90 1
e 156 151 1
e 192 151 1
e 228 192 1
e 251 192 1
e 170 156 1
e 190 156 1
e 202 156 1
e 222 156 1
e 240 222 1
e 211 202 1
e 234 202 1
e 263 234 1
e 293 234 1
e 294 234 1
e 366 294 1
e 370 366 1
e 247 211 1
e 281 211 1
e 290 211 1
e 296 290 1
e 342 281 1
e 298 247 1
e 301 247 1
e 320 301 1
e 337 301 1
e 360 337 1
e 363 337 1
e 385 337 1
e 362 360 1
e 371 360 1
e 372 360 1
e 388 360 1
e 381 371 1
e 383 381 1
e 400 381 1
e 389 383 1
e 395 362 1
e 358 320 1
e 318 298 1
e 220 143 1
e 64 23 1
e 21 19 1
e 25 19 1
e 233 19 1
e 30 25 1
e 35 25 1
e 60 35 1
e 69 60 1
e 172 60 1
e 77 69 1
e 176 69 1
e 96 77 1
e 102 96 1
e 162 96 1
e 164 162 1
e 167 164 1
e 238 164 1
e 252 238 1
e 253 238 1
e 305 253 1
e 297 252 1
e 300 252 1
e 309 300 1
e 343 300 1
e 391 343 1
e 308 297 1
e 204 167 1
e 276 167 1
e 231 204 1
e 248 204 1
e 335 248 1
e 104 102 1
e 115 104 1
e 122 115 1
e 129 115 1
e 157 129 1
e 183 129 1
e 356 129 1
e 32 30 1
e 58 30 1
e 80 30 1
e 87 30 1
e 95 87 1
e 149 87 1
e 147 95 1
e 155 147 1
e 158 155 1
e 178 155 1
e 197 155 1
e 255 197 1
e 185 178 1
e 194 178 1
e 311 194 1
e 319 194 1
e 314 311 1
e 101 80 1
e 114 80 1
e 146 114 1
e 148 146 1
e 217 146 1
e 152 148 1
e 173 148 1
e 269 148 1
e 186 173 1
e 227 173 1
e 212 186 1
e 246 186 1
e 272 212 1
e 189 152 1
e 264 152 1
e 266 152 1
e 273 152 1
e 62 58 1
e 76 62 1
e 81 76 1
e 97 76 1
e 127 97 1
e 196 97 1
e 275 127 1
e 287 127 1
e 288 275 1
e 112 81 1
e 125 112 1
e 126 112 1
e 150 126 1
e 175 126 1
e 181 126 1
e 352 181 1
e 177 125 1
e 230 125 1
e 259 230 1
e 271 230 1
e 199 177 1
e 292 199 1
e 46 32 1
e 48 46 1
e 52 46 1
e 56 52 1
e 67 52 1
e 72 52 1
e 94 72 1
e 73 67 1
e 99 67 1
e 123 99 1
e 145 123 1
e 201 145 1
e 278 73 1
e 282 278 1
e 326 278 1
e 374 278 1
e 66 56 1
e 85 56 1
e 103 85 1
e 235 85 1
e 166 103 1
e 277 166 1
e 109 66 1
e 116 109 1
e 153 109 1
e 91 48 1
e 118 91 1
e 207 118 1
e 39 21 1
e 65 21 1
e 79 21 1
e 105 79 1
e 124 79 1
e 161 79 1
e 180 124 1
e 215 105 1
e 68 39 1
e 71 39 1
e 89 71 1
e 88 68 1
e 134 68 1
e 136 134 1
e 169 134 1
e 213 169 1
e 237 169 1
e 265 213 1
e 184 136 1
e 200 184 1
e 210 184 1
e 3 2 1
e 5 2 1
e 31 2 1
e 6 5 1
e 9 5 1
e 12 5 1
e 17 5 1
e 61 17 1
e 133 61 1
e 36 9 1
e 53 9 1
e 78 9 1
e 113 78 1
e 191 78 1
e 221 191 1
e 242 221 1
e 245 242 1
e 249 242 1
e 336 242 1
e 348 336 1
e 364 336 1
e 355 348 1
e 274 249 1
e 291 249 1
e 324 249 1
e 396 324 1
e 302 291 1
e 306 302 1
e 321 302 1
e 350 302 1
e 376 350 1
e 329 321 1
e 332 321 1
e 340 332 1
e 377 340 1
e 387 329 1
e 393 387 1
e 394 387 1
e 397 393 1
e 345 274 1
e 361 274 1
e 357 345 1
e 359 345 1
e 368 345 1
e 382 357 1
e 392 382 1
e 203 113 1
e 257 203 1
e 353 203 1
e 154 53 1
e 55 36 1
e 84 55 1
e 8 6 1
e 15 6 1
e 22 15 1
e 98 22 1
e 132 22 1
e 141 22 1
e 179 22 1
e 195 179 1
e 236 179 1
e 351 236 1
e 159 141 1
e 142 132 1
e 13 8 1
e 28 13 1
e 37 28 1
e 75 37 1
e 92 37 1
e 110 92 1
e 174 110 1
e 182 110 1
e 214 174 1
e 226 174 1
e 250 226 1
e 378 226 1
e 379 378 1
e 280 250 1
e 299 250 1
e 354 250 1
e 349 299 1
e 316 280 1
e 323 280 1
e 365 280 1
e 369 280 1
e 380 323 1
e 331 316 1
e 386 316 1
e 398 386 1
e 375 331 1
e 384 331 1
e 224 214 1
e 254 214 1
e 285 214 1
e 390 285 1
e 284 254 1
e 338 254 1
e 325 284 1
e 346 284 1
e 328 325 1
e 341 325 1
e 330 328 1
e 373 328 1
e 100 75 1
e 205 100 1
e 4 3 1
e 26 3 1
e 51 26 1
e 7 4 1
e 10 4 1
e 11 10 1
e 14 10 1
e 20 10 1
e 24 10 1
e 45 24 1
e 54 24 1
e 70 54 1
e 74 70 1
e 83 45 1
e 33 20 1
e 42 20 1
e 44 42 1
e 47 44 1
e 63 44 1
e 108 63 1
e 128 108 1
e 229 128 1
e 119 47 1
e 223 47 1
e 135 119 1
e 163 119 1
e 187 135 1
e 193 135 1
e 216 135 1
e 244 135 1
e 327 135 1
e 209 193 1
e 218 209 1
e 258 209 1
e 270 258 1
e 289 270 1
e 243 218 1
e 256 218 1
e 262 218 1
e 268 262 1
e 286 268 1
e 307 286 1
e 313 307 1
e 279 256 1
e 304 256 1
e 303 279 1
e 310 303 1
e 312 303 1
e 333 303 1
e 315 310 1
e 322 315 1
e 334 315 1
e 344 315 1
e 399 315 1
e 367 322 1
e 27 11 1
e 34 27 1
e 43 34 1
e 57 34 1
e 120 57 1
e 139 57 1
e 168 139 1
e 121 120 1
e 138 121 1
e 208 121 1
e 261 121 1
e 86 43 1
e 106 43 1
e 107 43 1
e 130 107 1
e 171 107 1
e 140 130 1
e 144 140 1
e 283 140 1
e 206 144 1
e 232 144 1
e 239 232 1
e 219 206 1
e 225 206 1
e 241 225 1
e 267 225 1
e 339 225 1
e 131 86 1
e 137 131 1
e 165 137 1
e 198 165 1
e 260 198 1
e 295 198 1
e 347 295 1
e 317 260 1
